p cnf 121 2002
1 2 3 4 5 6 7 8 9 10 11 0
-1 -2 0
-1 -3 0
-1 -4 0
-1 -5 0
-1 -6 0
-1 -7 0
-1 -8 0
-1 -9 0
-1 -10 0
-1 -11 0
-2 -3 0
-2 -4 0
-2 -5 0
-2 -6 0
-2 -7 0
-2 -8 0
-2 -9 0
-2 -10 0
-2 -11 0
-3 -4 0
-3 -5 0
-3 -6 0
-3 -7 0
-3 -8 0
-3 -9 0
-3 -10 0
-3 -11 0
-4 -5 0
-4 -6 0
-4 -7 0
-4 -8 0
-4 -9 0
-4 -10 0
-4 -11 0
-5 -6 0
-5 -7 0
-5 -8 0
-5 -9 0
-5 -10 0
-5 -11 0
-6 -7 0
-6 -8 0
-6 -9 0
-6 -10 0
-6 -11 0
-7 -8 0
-7 -9 0
-7 -10 0
-7 -11 0
-8 -9 0
-8 -10 0
-8 -11 0
-9 -10 0
-9 -11 0
-10 -11 0
12 13 14 15 16 17 18 19 20 21 22 0
-12 -13 0
-12 -14 0
-12 -15 0
-12 -16 0
-12 -17 0
-12 -18 0
-12 -19 0
-12 -20 0
-12 -21 0
-12 -22 0
-13 -14 0
-13 -15 0
-13 -16 0
-13 -17 0
-13 -18 0
-13 -19 0
-13 -20 0
-13 -21 0
-13 -22 0
-14 -15 0
-14 -16 0
-14 -17 0
-14 -18 0
-14 -19 0
-14 -20 0
-14 -21 0
-14 -22 0
-15 -16 0
-15 -17 0
-15 -18 0
-15 -19 0
-15 -20 0
-15 -21 0
-15 -22 0
-16 -17 0
-16 -18 0
-16 -19 0
-16 -20 0
-16 -21 0
-16 -22 0
-17 -18 0
-17 -19 0
-17 -20 0
-17 -21 0
-17 -22 0
-18 -19 0
-18 -20 0
-18 -21 0
-18 -22 0
-19 -20 0
-19 -21 0
-19 -22 0
-20 -21 0
-20 -22 0
-21 -22 0
23 24 25 26 27 28 29 30 31 32 33 0
-23 -24 0
-23 -25 0
-23 -26 0
-23 -27 0
-23 -28 0
-23 -29 0
-23 -30 0
-23 -31 0
-23 -32 0
-23 -33 0
-24 -25 0
-24 -26 0
-24 -27 0
-24 -28 0
-24 -29 0
-24 -30 0
-24 -31 0
-24 -32 0
-24 -33 0
-25 -26 0
-25 -27 0
-25 -28 0
-25 -29 0
-25 -30 0
-25 -31 0
-25 -32 0
-25 -33 0
-26 -27 0
-26 -28 0
-26 -29 0
-26 -30 0
-26 -31 0
-26 -32 0
-26 -33 0
-27 -28 0
-27 -29 0
-27 -30 0
-27 -31 0
-27 -32 0
-27 -33 0
-28 -29 0
-28 -30 0
-28 -31 0
-28 -32 0
-28 -33 0
-29 -30 0
-29 -31 0
-29 -32 0
-29 -33 0
-30 -31 0
-30 -32 0
-30 -33 0
-31 -32 0
-31 -33 0
-32 -33 0
34 35 36 37 38 39 40 41 42 43 44 0
-34 -35 0
-34 -36 0
-34 -37 0
-34 -38 0
-34 -39 0
-34 -40 0
-34 -41 0
-34 -42 0
-34 -43 0
-34 -44 0
-35 -36 0
-35 -37 0
-35 -38 0
-35 -39 0
-35 -40 0
-35 -41 0
-35 -42 0
-35 -43 0
-35 -44 0
-36 -37 0
-36 -38 0
-36 -39 0
-36 -40 0
-36 -41 0
-36 -42 0
-36 -43 0
-36 -44 0
-37 -38 0
-37 -39 0
-37 -40 0
-37 -41 0
-37 -42 0
-37 -43 0
-37 -44 0
-38 -39 0
-38 -40 0
-38 -41 0
-38 -42 0
-38 -43 0
-38 -44 0
-39 -40 0
-39 -41 0
-39 -42 0
-39 -43 0
-39 -44 0
-40 -41 0
-40 -42 0
-40 -43 0
-40 -44 0
-41 -42 0
-41 -43 0
-41 -44 0
-42 -43 0
-42 -44 0
-43 -44 0
45 46 47 48 49 50 51 52 53 54 55 0
-45 -46 0
-45 -47 0
-45 -48 0
-45 -49 0
-45 -50 0
-45 -51 0
-45 -52 0
-45 -53 0
-45 -54 0
-45 -55 0
-46 -47 0
-46 -48 0
-46 -49 0
-46 -50 0
-46 -51 0
-46 -52 0
-46 -53 0
-46 -54 0
-46 -55 0
-47 -48 0
-47 -49 0
-47 -50 0
-47 -51 0
-47 -52 0
-47 -53 0
-47 -54 0
-47 -55 0
-48 -49 0
-48 -50 0
-48 -51 0
-48 -52 0
-48 -53 0
-48 -54 0
-48 -55 0
-49 -50 0
-49 -51 0
-49 -52 0
-49 -53 0
-49 -54 0
-49 -55 0
-50 -51 0
-50 -52 0
-50 -53 0
-50 -54 0
-50 -55 0
-51 -52 0
-51 -53 0
-51 -54 0
-51 -55 0
-52 -53 0
-52 -54 0
-52 -55 0
-53 -54 0
-53 -55 0
-54 -55 0
56 57 58 59 60 61 62 63 64 65 66 0
-56 -57 0
-56 -58 0
-56 -59 0
-56 -60 0
-56 -61 0
-56 -62 0
-56 -63 0
-56 -64 0
-56 -65 0
-56 -66 0
-57 -58 0
-57 -59 0
-57 -60 0
-57 -61 0
-57 -62 0
-57 -63 0
-57 -64 0
-57 -65 0
-57 -66 0
-58 -59 0
-58 -60 0
-58 -61 0
-58 -62 0
-58 -63 0
-58 -64 0
-58 -65 0
-58 -66 0
-59 -60 0
-59 -61 0
-59 -62 0
-59 -63 0
-59 -64 0
-59 -65 0
-59 -66 0
-60 -61 0
-60 -62 0
-60 -63 0
-60 -64 0
-60 -65 0
-60 -66 0
-61 -62 0
-61 -63 0
-61 -64 0
-61 -65 0
-61 -66 0
-62 -63 0
-62 -64 0
-62 -65 0
-62 -66 0
-63 -64 0
-63 -65 0
-63 -66 0
-64 -65 0
-64 -66 0
-65 -66 0
67 68 69 70 71 72 73 74 75 76 77 0
-67 -68 0
-67 -69 0
-67 -70 0
-67 -71 0
-67 -72 0
-67 -73 0
-67 -74 0
-67 -75 0
-67 -76 0
-67 -77 0
-68 -69 0
-68 -70 0
-68 -71 0
-68 -72 0
-68 -73 0
-68 -74 0
-68 -75 0
-68 -76 0
-68 -77 0
-69 -70 0
-69 -71 0
-69 -72 0
-69 -73 0
-69 -74 0
-69 -75 0
-69 -76 0
-69 -77 0
-70 -71 0
-70 -72 0
-70 -73 0
-70 -74 0
-70 -75 0
-70 -76 0
-70 -77 0
-71 -72 0
-71 -73 0
-71 -74 0
-71 -75 0
-71 -76 0
-71 -77 0
-72 -73 0
-72 -74 0
-72 -75 0
-72 -76 0
-72 -77 0
-73 -74 0
-73 -75 0
-73 -76 0
-73 -77 0
-74 -75 0
-74 -76 0
-74 -77 0
-75 -76 0
-75 -77 0
-76 -77 0
78 79 80 81 82 83 84 85 86 87 88 0
-78 -79 0
-78 -80 0
-78 -81 0
-78 -82 0
-78 -83 0
-78 -84 0
-78 -85 0
-78 -86 0
-78 -87 0
-78 -88 0
-79 -80 0
-79 -81 0
-79 -82 0
-79 -83 0
-79 -84 0
-79 -85 0
-79 -86 0
-79 -87 0
-79 -88 0
-80 -81 0
-80 -82 0
-80 -83 0
-80 -84 0
-80 -85 0
-80 -86 0
-80 -87 0
-80 -88 0
-81 -82 0
-81 -83 0
-81 -84 0
-81 -85 0
-81 -86 0
-81 -87 0
-81 -88 0
-82 -83 0
-82 -84 0
-82 -85 0
-82 -86 0
-82 -87 0
-82 -88 0
-83 -84 0
-83 -85 0
-83 -86 0
-83 -87 0
-83 -88 0
-84 -85 0
-84 -86 0
-84 -87 0
-84 -88 0
-85 -86 0
-85 -87 0
-85 -88 0
-86 -87 0
-86 -88 0
-87 -88 0
89 90 91 92 93 94 95 96 97 98 99 0
-89 -90 0
-89 -91 0
-89 -92 0
-89 -93 0
-89 -94 0
-89 -95 0
-89 -96 0
-89 -97 0
-89 -98 0
-89 -99 0
-90 -91 0
-90 -92 0
-90 -93 0
-90 -94 0
-90 -95 0
-90 -96 0
-90 -97 0
-90 -98 0
-90 -99 0
-91 -92 0
-91 -93 0
-91 -94 0
-91 -95 0
-91 -96 0
-91 -97 0
-91 -98 0
-91 -99 0
-92 -93 0
-92 -94 0
-92 -95 0
-92 -96 0
-92 -97 0
-92 -98 0
-92 -99 0
-93 -94 0
-93 -95 0
-93 -96 0
-93 -97 0
-93 -98 0
-93 -99 0
-94 -95 0
-94 -96 0
-94 -97 0
-94 -98 0
-94 -99 0
-95 -96 0
-95 -97 0
-95 -98 0
-95 -99 0
-96 -97 0
-96 -98 0
-96 -99 0
-97 -98 0
-97 -99 0
-98 -99 0
100 101 102 103 104 105 106 107 108 109 110 0
-100 -101 0
-100 -102 0
-100 -103 0
-100 -104 0
-100 -105 0
-100 -106 0
-100 -107 0
-100 -108 0
-100 -109 0
-100 -110 0
-101 -102 0
-101 -103 0
-101 -104 0
-101 -105 0
-101 -106 0
-101 -107 0
-101 -108 0
-101 -109 0
-101 -110 0
-102 -103 0
-102 -104 0
-102 -105 0
-102 -106 0
-102 -107 0
-102 -108 0
-102 -109 0
-102 -110 0
-103 -104 0
-103 -105 0
-103 -106 0
-103 -107 0
-103 -108 0
-103 -109 0
-103 -110 0
-104 -105 0
-104 -106 0
-104 -107 0
-104 -108 0
-104 -109 0
-104 -110 0
-105 -106 0
-105 -107 0
-105 -108 0
-105 -109 0
-105 -110 0
-106 -107 0
-106 -108 0
-106 -109 0
-106 -110 0
-107 -108 0
-107 -109 0
-107 -110 0
-108 -109 0
-108 -110 0
-109 -110 0
111 112 113 114 115 116 117 118 119 120 121 0
-111 -112 0
-111 -113 0
-111 -114 0
-111 -115 0
-111 -116 0
-111 -117 0
-111 -118 0
-111 -119 0
-111 -120 0
-111 -121 0
-112 -113 0
-112 -114 0
-112 -115 0
-112 -116 0
-112 -117 0
-112 -118 0
-112 -119 0
-112 -120 0
-112 -121 0
-113 -114 0
-113 -115 0
-113 -116 0
-113 -117 0
-113 -118 0
-113 -119 0
-113 -120 0
-113 -121 0
-114 -115 0
-114 -116 0
-114 -117 0
-114 -118 0
-114 -119 0
-114 -120 0
-114 -121 0
-115 -116 0
-115 -117 0
-115 -118 0
-115 -119 0
-115 -120 0
-115 -121 0
-116 -117 0
-116 -118 0
-116 -119 0
-116 -120 0
-116 -121 0
-117 -118 0
-117 -119 0
-117 -120 0
-117 -121 0
-118 -119 0
-118 -120 0
-118 -121 0
-119 -120 0
-119 -121 0
-120 -121 0
1 12 23 34 45 56 67 78 89 100 111 0
-1 -12 0
-1 -23 0
-1 -34 0
-1 -45 0
-1 -56 0
-1 -67 0
-1 -78 0
-1 -89 0
-1 -100 0
-1 -111 0
-12 -23 0
-12 -34 0
-12 -45 0
-12 -56 0
-12 -67 0
-12 -78 0
-12 -89 0
-12 -100 0
-12 -111 0
-23 -34 0
-23 -45 0
-23 -56 0
-23 -67 0
-23 -78 0
-23 -89 0
-23 -100 0
-23 -111 0
-34 -45 0
-34 -56 0
-34 -67 0
-34 -78 0
-34 -89 0
-34 -100 0
-34 -111 0
-45 -56 0
-45 -67 0
-45 -78 0
-45 -89 0
-45 -100 0
-45 -111 0
-56 -67 0
-56 -78 0
-56 -89 0
-56 -100 0
-56 -111 0
-67 -78 0
-67 -89 0
-67 -100 0
-67 -111 0
-78 -89 0
-78 -100 0
-78 -111 0
-89 -100 0
-89 -111 0
-100 -111 0
2 13 24 35 46 57 68 79 90 101 112 0
-2 -13 0
-2 -24 0
-2 -35 0
-2 -46 0
-2 -57 0
-2 -68 0
-2 -79 0
-2 -90 0
-2 -101 0
-2 -112 0
-13 -24 0
-13 -35 0
-13 -46 0
-13 -57 0
-13 -68 0
-13 -79 0
-13 -90 0
-13 -101 0
-13 -112 0
-24 -35 0
-24 -46 0
-24 -57 0
-24 -68 0
-24 -79 0
-24 -90 0
-24 -101 0
-24 -112 0
-35 -46 0
-35 -57 0
-35 -68 0
-35 -79 0
-35 -90 0
-35 -101 0
-35 -112 0
-46 -57 0
-46 -68 0
-46 -79 0
-46 -90 0
-46 -101 0
-46 -112 0
-57 -68 0
-57 -79 0
-57 -90 0
-57 -101 0
-57 -112 0
-68 -79 0
-68 -90 0
-68 -101 0
-68 -112 0
-79 -90 0
-79 -101 0
-79 -112 0
-90 -101 0
-90 -112 0
-101 -112 0
3 14 25 36 47 58 69 80 91 102 113 0
-3 -14 0
-3 -25 0
-3 -36 0
-3 -47 0
-3 -58 0
-3 -69 0
-3 -80 0
-3 -91 0
-3 -102 0
-3 -113 0
-14 -25 0
-14 -36 0
-14 -47 0
-14 -58 0
-14 -69 0
-14 -80 0
-14 -91 0
-14 -102 0
-14 -113 0
-25 -36 0
-25 -47 0
-25 -58 0
-25 -69 0
-25 -80 0
-25 -91 0
-25 -102 0
-25 -113 0
-36 -47 0
-36 -58 0
-36 -69 0
-36 -80 0
-36 -91 0
-36 -102 0
-36 -113 0
-47 -58 0
-47 -69 0
-47 -80 0
-47 -91 0
-47 -102 0
-47 -113 0
-58 -69 0
-58 -80 0
-58 -91 0
-58 -102 0
-58 -113 0
-69 -80 0
-69 -91 0
-69 -102 0
-69 -113 0
-80 -91 0
-80 -102 0
-80 -113 0
-91 -102 0
-91 -113 0
-102 -113 0
4 15 26 37 48 59 70 81 92 103 114 0
-4 -15 0
-4 -26 0
-4 -37 0
-4 -48 0
-4 -59 0
-4 -70 0
-4 -81 0
-4 -92 0
-4 -103 0
-4 -114 0
-15 -26 0
-15 -37 0
-15 -48 0
-15 -59 0
-15 -70 0
-15 -81 0
-15 -92 0
-15 -103 0
-15 -114 0
-26 -37 0
-26 -48 0
-26 -59 0
-26 -70 0
-26 -81 0
-26 -92 0
-26 -103 0
-26 -114 0
-37 -48 0
-37 -59 0
-37 -70 0
-37 -81 0
-37 -92 0
-37 -103 0
-37 -114 0
-48 -59 0
-48 -70 0
-48 -81 0
-48 -92 0
-48 -103 0
-48 -114 0
-59 -70 0
-59 -81 0
-59 -92 0
-59 -103 0
-59 -114 0
-70 -81 0
-70 -92 0
-70 -103 0
-70 -114 0
-81 -92 0
-81 -103 0
-81 -114 0
-92 -103 0
-92 -114 0
-103 -114 0
5 16 27 38 49 60 71 82 93 104 115 0
-5 -16 0
-5 -27 0
-5 -38 0
-5 -49 0
-5 -60 0
-5 -71 0
-5 -82 0
-5 -93 0
-5 -104 0
-5 -115 0
-16 -27 0
-16 -38 0
-16 -49 0
-16 -60 0
-16 -71 0
-16 -82 0
-16 -93 0
-16 -104 0
-16 -115 0
-27 -38 0
-27 -49 0
-27 -60 0
-27 -71 0
-27 -82 0
-27 -93 0
-27 -104 0
-27 -115 0
-38 -49 0
-38 -60 0
-38 -71 0
-38 -82 0
-38 -93 0
-38 -104 0
-38 -115 0
-49 -60 0
-49 -71 0
-49 -82 0
-49 -93 0
-49 -104 0
-49 -115 0
-60 -71 0
-60 -82 0
-60 -93 0
-60 -104 0
-60 -115 0
-71 -82 0
-71 -93 0
-71 -104 0
-71 -115 0
-82 -93 0
-82 -104 0
-82 -115 0
-93 -104 0
-93 -115 0
-104 -115 0
6 17 28 39 50 61 72 83 94 105 116 0
-6 -17 0
-6 -28 0
-6 -39 0
-6 -50 0
-6 -61 0
-6 -72 0
-6 -83 0
-6 -94 0
-6 -105 0
-6 -116 0
-17 -28 0
-17 -39 0
-17 -50 0
-17 -61 0
-17 -72 0
-17 -83 0
-17 -94 0
-17 -105 0
-17 -116 0
-28 -39 0
-28 -50 0
-28 -61 0
-28 -72 0
-28 -83 0
-28 -94 0
-28 -105 0
-28 -116 0
-39 -50 0
-39 -61 0
-39 -72 0
-39 -83 0
-39 -94 0
-39 -105 0
-39 -116 0
-50 -61 0
-50 -72 0
-50 -83 0
-50 -94 0
-50 -105 0
-50 -116 0
-61 -72 0
-61 -83 0
-61 -94 0
-61 -105 0
-61 -116 0
-72 -83 0
-72 -94 0
-72 -105 0
-72 -116 0
-83 -94 0
-83 -105 0
-83 -116 0
-94 -105 0
-94 -116 0
-105 -116 0
7 18 29 40 51 62 73 84 95 106 117 0
-7 -18 0
-7 -29 0
-7 -40 0
-7 -51 0
-7 -62 0
-7 -73 0
-7 -84 0
-7 -95 0
-7 -106 0
-7 -117 0
-18 -29 0
-18 -40 0
-18 -51 0
-18 -62 0
-18 -73 0
-18 -84 0
-18 -95 0
-18 -106 0
-18 -117 0
-29 -40 0
-29 -51 0
-29 -62 0
-29 -73 0
-29 -84 0
-29 -95 0
-29 -106 0
-29 -117 0
-40 -51 0
-40 -62 0
-40 -73 0
-40 -84 0
-40 -95 0
-40 -106 0
-40 -117 0
-51 -62 0
-51 -73 0
-51 -84 0
-51 -95 0
-51 -106 0
-51 -117 0
-62 -73 0
-62 -84 0
-62 -95 0
-62 -106 0
-62 -117 0
-73 -84 0
-73 -95 0
-73 -106 0
-73 -117 0
-84 -95 0
-84 -106 0
-84 -117 0
-95 -106 0
-95 -117 0
-106 -117 0
8 19 30 41 52 63 74 85 96 107 118 0
-8 -19 0
-8 -30 0
-8 -41 0
-8 -52 0
-8 -63 0
-8 -74 0
-8 -85 0
-8 -96 0
-8 -107 0
-8 -118 0
-19 -30 0
-19 -41 0
-19 -52 0
-19 -63 0
-19 -74 0
-19 -85 0
-19 -96 0
-19 -107 0
-19 -118 0
-30 -41 0
-30 -52 0
-30 -63 0
-30 -74 0
-30 -85 0
-30 -96 0
-30 -107 0
-30 -118 0
-41 -52 0
-41 -63 0
-41 -74 0
-41 -85 0
-41 -96 0
-41 -107 0
-41 -118 0
-52 -63 0
-52 -74 0
-52 -85 0
-52 -96 0
-52 -107 0
-52 -118 0
-63 -74 0
-63 -85 0
-63 -96 0
-63 -107 0
-63 -118 0
-74 -85 0
-74 -96 0
-74 -107 0
-74 -118 0
-85 -96 0
-85 -107 0
-85 -118 0
-96 -107 0
-96 -118 0
-107 -118 0
9 20 31 42 53 64 75 86 97 108 119 0
-9 -20 0
-9 -31 0
-9 -42 0
-9 -53 0
-9 -64 0
-9 -75 0
-9 -86 0
-9 -97 0
-9 -108 0
-9 -119 0
-20 -31 0
-20 -42 0
-20 -53 0
-20 -64 0
-20 -75 0
-20 -86 0
-20 -97 0
-20 -108 0
-20 -119 0
-31 -42 0
-31 -53 0
-31 -64 0
-31 -75 0
-31 -86 0
-31 -97 0
-31 -108 0
-31 -119 0
-42 -53 0
-42 -64 0
-42 -75 0
-42 -86 0
-42 -97 0
-42 -108 0
-42 -119 0
-53 -64 0
-53 -75 0
-53 -86 0
-53 -97 0
-53 -108 0
-53 -119 0
-64 -75 0
-64 -86 0
-64 -97 0
-64 -108 0
-64 -119 0
-75 -86 0
-75 -97 0
-75 -108 0
-75 -119 0
-86 -97 0
-86 -108 0
-86 -119 0
-97 -108 0
-97 -119 0
-108 -119 0
10 21 32 43 54 65 76 87 98 109 120 0
-10 -21 0
-10 -32 0
-10 -43 0
-10 -54 0
-10 -65 0
-10 -76 0
-10 -87 0
-10 -98 0
-10 -109 0
-10 -120 0
-21 -32 0
-21 -43 0
-21 -54 0
-21 -65 0
-21 -76 0
-21 -87 0
-21 -98 0
-21 -109 0
-21 -120 0
-32 -43 0
-32 -54 0
-32 -65 0
-32 -76 0
-32 -87 0
-32 -98 0
-32 -109 0
-32 -120 0
-43 -54 0
-43 -65 0
-43 -76 0
-43 -87 0
-43 -98 0
-43 -109 0
-43 -120 0
-54 -65 0
-54 -76 0
-54 -87 0
-54 -98 0
-54 -109 0
-54 -120 0
-65 -76 0
-65 -87 0
-65 -98 0
-65 -109 0
-65 -120 0
-76 -87 0
-76 -98 0
-76 -109 0
-76 -120 0
-87 -98 0
-87 -109 0
-87 -120 0
-98 -109 0
-98 -120 0
-109 -120 0
11 22 33 44 55 66 77 88 99 110 121 0
-11 -22 0
-11 -33 0
-11 -44 0
-11 -55 0
-11 -66 0
-11 -77 0
-11 -88 0
-11 -99 0
-11 -110 0
-11 -121 0
-22 -33 0
-22 -44 0
-22 -55 0
-22 -66 0
-22 -77 0
-22 -88 0
-22 -99 0
-22 -110 0
-22 -121 0
-33 -44 0
-33 -55 0
-33 -66 0
-33 -77 0
-33 -88 0
-33 -99 0
-33 -110 0
-33 -121 0
-44 -55 0
-44 -66 0
-44 -77 0
-44 -88 0
-44 -99 0
-44 -110 0
-44 -121 0
-55 -66 0
-55 -77 0
-55 -88 0
-55 -99 0
-55 -110 0
-55 -121 0
-66 -77 0
-66 -88 0
-66 -99 0
-66 -110 0
-66 -121 0
-77 -88 0
-77 -99 0
-77 -110 0
-77 -121 0
-88 -99 0
-88 -110 0
-88 -121 0
-99 -110 0
-99 -121 0
-110 -121 0
-1 -13 0
-1 -25 0
-1 -37 0
-1 -49 0
-1 -61 0
-1 -73 0
-1 -85 0
-1 -97 0
-1 -109 0
-1 -121 0
-13 -25 0
-13 -37 0
-13 -49 0
-13 -61 0
-13 -73 0
-13 -85 0
-13 -97 0
-13 -109 0
-13 -121 0
-25 -37 0
-25 -49 0
-25 -61 0
-25 -73 0
-25 -85 0
-25 -97 0
-25 -109 0
-25 -121 0
-37 -49 0
-37 -61 0
-37 -73 0
-37 -85 0
-37 -97 0
-37 -109 0
-37 -121 0
-49 -61 0
-49 -73 0
-49 -85 0
-49 -97 0
-49 -109 0
-49 -121 0
-61 -73 0
-61 -85 0
-61 -97 0
-61 -109 0
-61 -121 0
-73 -85 0
-73 -97 0
-73 -109 0
-73 -121 0
-85 -97 0
-85 -109 0
-85 -121 0
-97 -109 0
-97 -121 0
-109 -121 0
-2 -14 0
-2 -26 0
-2 -38 0
-2 -50 0
-2 -62 0
-2 -74 0
-2 -86 0
-2 -98 0
-2 -110 0
-14 -26 0
-14 -38 0
-14 -50 0
-14 -62 0
-14 -74 0
-14 -86 0
-14 -98 0
-14 -110 0
-26 -38 0
-26 -50 0
-26 -62 0
-26 -74 0
-26 -86 0
-26 -98 0
-26 -110 0
-38 -50 0
-38 -62 0
-38 -74 0
-38 -86 0
-38 -98 0
-38 -110 0
-50 -62 0
-50 -74 0
-50 -86 0
-50 -98 0
-50 -110 0
-62 -74 0
-62 -86 0
-62 -98 0
-62 -110 0
-74 -86 0
-74 -98 0
-74 -110 0
-86 -98 0
-86 -110 0
-98 -110 0
-3 -15 0
-3 -27 0
-3 -39 0
-3 -51 0
-3 -63 0
-3 -75 0
-3 -87 0
-3 -99 0
-15 -27 0
-15 -39 0
-15 -51 0
-15 -63 0
-15 -75 0
-15 -87 0
-15 -99 0
-27 -39 0
-27 -51 0
-27 -63 0
-27 -75 0
-27 -87 0
-27 -99 0
-39 -51 0
-39 -63 0
-39 -75 0
-39 -87 0
-39 -99 0
-51 -63 0
-51 -75 0
-51 -87 0
-51 -99 0
-63 -75 0
-63 -87 0
-63 -99 0
-75 -87 0
-75 -99 0
-87 -99 0
-4 -16 0
-4 -28 0
-4 -40 0
-4 -52 0
-4 -64 0
-4 -76 0
-4 -88 0
-16 -28 0
-16 -40 0
-16 -52 0
-16 -64 0
-16 -76 0
-16 -88 0
-28 -40 0
-28 -52 0
-28 -64 0
-28 -76 0
-28 -88 0
-40 -52 0
-40 -64 0
-40 -76 0
-40 -88 0
-52 -64 0
-52 -76 0
-52 -88 0
-64 -76 0
-64 -88 0
-76 -88 0
-5 -17 0
-5 -29 0
-5 -41 0
-5 -53 0
-5 -65 0
-5 -77 0
-17 -29 0
-17 -41 0
-17 -53 0
-17 -65 0
-17 -77 0
-29 -41 0
-29 -53 0
-29 -65 0
-29 -77 0
-41 -53 0
-41 -65 0
-41 -77 0
-53 -65 0
-53 -77 0
-65 -77 0
-6 -18 0
-6 -30 0
-6 -42 0
-6 -54 0
-6 -66 0
-18 -30 0
-18 -42 0
-18 -54 0
-18 -66 0
-30 -42 0
-30 -54 0
-30 -66 0
-42 -54 0
-42 -66 0
-54 -66 0
-7 -19 0
-7 -31 0
-7 -43 0
-7 -55 0
-19 -31 0
-19 -43 0
-19 -55 0
-31 -43 0
-31 -55 0
-43 -55 0
-8 -20 0
-8 -32 0
-8 -44 0
-20 -32 0
-20 -44 0
-32 -44 0
-9 -21 0
-9 -33 0
-21 -33 0
-10 -22 0
-12 -24 0
-12 -36 0
-12 -48 0
-12 -60 0
-12 -72 0
-12 -84 0
-12 -96 0
-12 -108 0
-12 -120 0
-24 -36 0
-24 -48 0
-24 -60 0
-24 -72 0
-24 -84 0
-24 -96 0
-24 -108 0
-24 -120 0
-36 -48 0
-36 -60 0
-36 -72 0
-36 -84 0
-36 -96 0
-36 -108 0
-36 -120 0
-48 -60 0
-48 -72 0
-48 -84 0
-48 -96 0
-48 -108 0
-48 -120 0
-60 -72 0
-60 -84 0
-60 -96 0
-60 -108 0
-60 -120 0
-72 -84 0
-72 -96 0
-72 -108 0
-72 -120 0
-84 -96 0
-84 -108 0
-84 -120 0
-96 -108 0
-96 -120 0
-108 -120 0
-23 -35 0
-23 -47 0
-23 -59 0
-23 -71 0
-23 -83 0
-23 -95 0
-23 -107 0
-23 -119 0
-35 -47 0
-35 -59 0
-35 -71 0
-35 -83 0
-35 -95 0
-35 -107 0
-35 -119 0
-47 -59 0
-47 -71 0
-47 -83 0
-47 -95 0
-47 -107 0
-47 -119 0
-59 -71 0
-59 -83 0
-59 -95 0
-59 -107 0
-59 -119 0
-71 -83 0
-71 -95 0
-71 -107 0
-71 -119 0
-83 -95 0
-83 -107 0
-83 -119 0
-95 -107 0
-95 -119 0
-107 -119 0
-34 -46 0
-34 -58 0
-34 -70 0
-34 -82 0
-34 -94 0
-34 -106 0
-34 -118 0
-46 -58 0
-46 -70 0
-46 -82 0
-46 -94 0
-46 -106 0
-46 -118 0
-58 -70 0
-58 -82 0
-58 -94 0
-58 -106 0
-58 -118 0
-70 -82 0
-70 -94 0
-70 -106 0
-70 -118 0
-82 -94 0
-82 -106 0
-82 -118 0
-94 -106 0
-94 -118 0
-106 -118 0
-45 -57 0
-45 -69 0
-45 -81 0
-45 -93 0
-45 -105 0
-45 -117 0
-57 -69 0
-57 -81 0
-57 -93 0
-57 -105 0
-57 -117 0
-69 -81 0
-69 -93 0
-69 -105 0
-69 -117 0
-81 -93 0
-81 -105 0
-81 -117 0
-93 -105 0
-93 -117 0
-105 -117 0
-56 -68 0
-56 -80 0
-56 -92 0
-56 -104 0
-56 -116 0
-68 -80 0
-68 -92 0
-68 -104 0
-68 -116 0
-80 -92 0
-80 -104 0
-80 -116 0
-92 -104 0
-92 -116 0
-104 -116 0
-67 -79 0
-67 -91 0
-67 -103 0
-67 -115 0
-79 -91 0
-79 -103 0
-79 -115 0
-91 -103 0
-91 -115 0
-103 -115 0
-78 -90 0
-78 -102 0
-78 -114 0
-90 -102 0
-90 -114 0
-102 -114 0
-89 -101 0
-89 -113 0
-101 -113 0
-100 -112 0
-11 -21 0
-11 -31 0
-11 -41 0
-11 -51 0
-11 -61 0
-11 -71 0
-11 -81 0
-11 -91 0
-11 -101 0
-11 -111 0
-21 -31 0
-21 -41 0
-21 -51 0
-21 -61 0
-21 -71 0
-21 -81 0
-21 -91 0
-21 -101 0
-21 -111 0
-31 -41 0
-31 -51 0
-31 -61 0
-31 -71 0
-31 -81 0
-31 -91 0
-31 -101 0
-31 -111 0
-41 -51 0
-41 -61 0
-41 -71 0
-41 -81 0
-41 -91 0
-41 -101 0
-41 -111 0
-51 -61 0
-51 -71 0
-51 -81 0
-51 -91 0
-51 -101 0
-51 -111 0
-61 -71 0
-61 -81 0
-61 -91 0
-61 -101 0
-61 -111 0
-71 -81 0
-71 -91 0
-71 -101 0
-71 -111 0
-81 -91 0
-81 -101 0
-81 -111 0
-91 -101 0
-91 -111 0
-101 -111 0
-10 -20 0
-10 -30 0
-10 -40 0
-10 -50 0
-10 -60 0
-10 -70 0
-10 -80 0
-10 -90 0
-10 -100 0
-20 -30 0
-20 -40 0
-20 -50 0
-20 -60 0
-20 -70 0
-20 -80 0
-20 -90 0
-20 -100 0
-30 -40 0
-30 -50 0
-30 -60 0
-30 -70 0
-30 -80 0
-30 -90 0
-30 -100 0
-40 -50 0
-40 -60 0
-40 -70 0
-40 -80 0
-40 -90 0
-40 -100 0
-50 -60 0
-50 -70 0
-50 -80 0
-50 -90 0
-50 -100 0
-60 -70 0
-60 -80 0
-60 -90 0
-60 -100 0
-70 -80 0
-70 -90 0
-70 -100 0
-80 -90 0
-80 -100 0
-90 -100 0
-9 -19 0
-9 -29 0
-9 -39 0
-9 -49 0
-9 -59 0
-9 -69 0
-9 -79 0
-9 -89 0
-19 -29 0
-19 -39 0
-19 -49 0
-19 -59 0
-19 -69 0
-19 -79 0
-19 -89 0
-29 -39 0
-29 -49 0
-29 -59 0
-29 -69 0
-29 -79 0
-29 -89 0
-39 -49 0
-39 -59 0
-39 -69 0
-39 -79 0
-39 -89 0
-49 -59 0
-49 -69 0
-49 -79 0
-49 -89 0
-59 -69 0
-59 -79 0
-59 -89 0
-69 -79 0
-69 -89 0
-79 -89 0
-8 -18 0
-8 -28 0
-8 -38 0
-8 -48 0
-8 -58 0
-8 -68 0
-8 -78 0
-18 -28 0
-18 -38 0
-18 -48 0
-18 -58 0
-18 -68 0
-18 -78 0
-28 -38 0
-28 -48 0
-28 -58 0
-28 -68 0
-28 -78 0
-38 -48 0
-38 -58 0
-38 -68 0
-38 -78 0
-48 -58 0
-48 -68 0
-48 -78 0
-58 -68 0
-58 -78 0
-68 -78 0
-7 -17 0
-7 -27 0
-7 -37 0
-7 -47 0
-7 -57 0
-7 -67 0
-17 -27 0
-17 -37 0
-17 -47 0
-17 -57 0
-17 -67 0
-27 -37 0
-27 -47 0
-27 -57 0
-27 -67 0
-37 -47 0
-37 -57 0
-37 -67 0
-47 -57 0
-47 -67 0
-57 -67 0
-6 -16 0
-6 -26 0
-6 -36 0
-6 -46 0
-6 -56 0
-16 -26 0
-16 -36 0
-16 -46 0
-16 -56 0
-26 -36 0
-26 -46 0
-26 -56 0
-36 -46 0
-36 -56 0
-46 -56 0
-5 -15 0
-5 -25 0
-5 -35 0
-5 -45 0
-15 -25 0
-15 -35 0
-15 -45 0
-25 -35 0
-25 -45 0
-35 -45 0
-4 -14 0
-4 -24 0
-4 -34 0
-14 -24 0
-14 -34 0
-24 -34 0
-3 -13 0
-3 -23 0
-13 -23 0
-2 -12 0
-22 -32 0
-22 -42 0
-22 -52 0
-22 -62 0
-22 -72 0
-22 -82 0
-22 -92 0
-22 -102 0
-22 -112 0
-32 -42 0
-32 -52 0
-32 -62 0
-32 -72 0
-32 -82 0
-32 -92 0
-32 -102 0
-32 -112 0
-42 -52 0
-42 -62 0
-42 -72 0
-42 -82 0
-42 -92 0
-42 -102 0
-42 -112 0
-52 -62 0
-52 -72 0
-52 -82 0
-52 -92 0
-52 -102 0
-52 -112 0
-62 -72 0
-62 -82 0
-62 -92 0
-62 -102 0
-62 -112 0
-72 -82 0
-72 -92 0
-72 -102 0
-72 -112 0
-82 -92 0
-82 -102 0
-82 -112 0
-92 -102 0
-92 -112 0
-102 -112 0
-33 -43 0
-33 -53 0
-33 -63 0
-33 -73 0
-33 -83 0
-33 -93 0
-33 -103 0
-33 -113 0
-43 -53 0
-43 -63 0
-43 -73 0
-43 -83 0
-43 -93 0
-43 -103 0
-43 -113 0
-53 -63 0
-53 -73 0
-53 -83 0
-53 -93 0
-53 -103 0
-53 -113 0
-63 -73 0
-63 -83 0
-63 -93 0
-63 -103 0
-63 -113 0
-73 -83 0
-73 -93 0
-73 -103 0
-73 -113 0
-83 -93 0
-83 -103 0
-83 -113 0
-93 -103 0
-93 -113 0
-103 -113 0
-44 -54 0
-44 -64 0
-44 -74 0
-44 -84 0
-44 -94 0
-44 -104 0
-44 -114 0
-54 -64 0
-54 -74 0
-54 -84 0
-54 -94 0
-54 -104 0
-54 -114 0
-64 -74 0
-64 -84 0
-64 -94 0
-64 -104 0
-64 -114 0
-74 -84 0
-74 -94 0
-74 -104 0
-74 -114 0
-84 -94 0
-84 -104 0
-84 -114 0
-94 -104 0
-94 -114 0
-104 -114 0
-55 -65 0
-55 -75 0
-55 -85 0
-55 -95 0
-55 -105 0
-55 -115 0
-65 -75 0
-65 -85 0
-65 -95 0
-65 -105 0
-65 -115 0
-75 -85 0
-75 -95 0
-75 -105 0
-75 -115 0
-85 -95 0
-85 -105 0
-85 -115 0
-95 -105 0
-95 -115 0
-105 -115 0
-66 -76 0
-66 -86 0
-66 -96 0
-66 -106 0
-66 -116 0
-76 -86 0
-76 -96 0
-76 -106 0
-76 -116 0
-86 -96 0
-86 -106 0
-86 -116 0
-96 -106 0
-96 -116 0
-106 -116 0
-77 -87 0
-77 -97 0
-77 -107 0
-77 -117 0
-87 -97 0
-87 -107 0
-87 -117 0
-97 -107 0
-97 -117 0
-107 -117 0
-88 -98 0
-88 -108 0
-88 -118 0
-98 -108 0
-98 -118 0
-108 -118 0
-99 -109 0
-99 -119 0
-109 -119 0
-110 -120 0
